NAME: tsp40_25
COMMENT: 40-tsp problem (Padberg/Rinaldi)
TYPE: TSP
DIMENSION: 40
EDGE_WEIGHT_TYPE : EUC_2D
NODE_COORD_SECTION
1 0 37
2 18 7
3 24 36
4 2 16
5 26 35
6 29 31
7 19 25
8 7 31
9 10 5
10 34 37
11 2 34
12 5 28
13 16 16
14 7 39
15 8 40
16 20 13
17 15 4
18 10 12
19 25 4
20 15 15
21 17 34
22 33 26
23 14 32
24 33 27
25 39 14
26 9 10
27 21 1
28 36 23
29 35 33
30 11 40
31 38 37
32 25 22
33 29 21
34 25 35
35 8 23
36 7 33
37 3 38
38 3 18
39 18 6
40 23 6
